Version identifier: 22.1.0.0 | 2022-03-09 | 1a383f8ce
CPXPARAM_Threads                                 1
CPXPARAM_MIP_Strategy_VariableSelect             3
CPXPARAM_TimeLimit                               599.999983628
1 of 1 MIP starts provided solutions.
MIP start 'm1' defined initial solution with objective 5.0000.
Tried aggregator 2 times.
MIP Presolve eliminated 37 rows and 1 columns.
MIP Presolve added 32 rows and 8 columns.
MIP Presolve modified 73 coefficients.
Aggregator did 8 substitutions.
Reduced MIP has 1213 rows, 5200 columns, and 76896 nonzeros.
Reduced MIP has 5200 binaries, 0 generals, 0 SOSs, and 0 indicators.
Presolve time = 0.10 sec. (133.06 ticks)
Probing time = 0.02 sec. (15.17 ticks)
Tried aggregator 1 time.
Detecting symmetries...
MIP Presolve modified 14 coefficients.
Reduced MIP has 1213 rows, 5200 columns, and 77272 nonzeros.
Reduced MIP has 5200 binaries, 0 generals, 0 SOSs, and 0 indicators.
Presolve time = 0.07 sec. (86.53 ticks)
Probing time = 0.02 sec. (15.22 ticks)
Clique table members: 800.
MIP emphasis: balance optimality and feasibility.
MIP search method: dynamic search.
Parallel mode: none, using 1 thread.
Root relaxation solution time = 0.93 sec. (1060.55 ticks)

        Nodes                                         Cuts/
   Node  Left     Objective  IInf  Best Integer    Best Bound    ItCnt     Gap

*     0+    0                            5.0000    20100.0000              --- 
      0     0      200.0000   851        5.0000      200.0000     4212     --- 
*     0+    0                           37.0000      200.0000           440.54%
*     0+    0                           51.0000      200.0000           292.16%
*     0+    0                          184.0000      200.0000             8.70%
      0     0        cutoff            184.0000      200.0000     4212    8.70%
Detecting symmetries...
      0     2      200.0000   144      184.0000      200.0000     4212    8.70%
Elapsed time = 7.70 sec. (8620.39 ticks, tree = 0.01 MB, solutions = 4)
      1     3      200.0000   714      184.0000      200.0000    10815    8.70%
      2     4      200.0000   496      184.0000      200.0000    15358    8.70%
      3     5      200.0000   636      184.0000      200.0000    19224    8.70%
      4     6      200.0000   371      184.0000      200.0000    19544    8.70%
      5     7      200.0000   610      184.0000      200.0000    23846    8.70%
      6     8      200.0000   364      184.0000      200.0000    25794    8.70%
      7     9      200.0000   354      184.0000      200.0000    26560    8.70%
      8    10      200.0000   357      184.0000      200.0000    27120    8.70%
      9    11      200.0000   856      184.0000      200.0000    30277    8.70%
     10    12      200.0000   368      184.0000      200.0000    30664    8.70%
Elapsed time = 17.74 sec. (20551.73 ticks, tree = 0.07 MB, solutions = 4)
     12    14      200.0000   351      184.0000      200.0000    32804    8.70%
     14    16      200.0000   276      184.0000      200.0000    35140    8.70%
     17    19      200.0000   436      184.0000      200.0000    39875    8.70%
     18    20      200.0000   574      184.0000      200.0000    43729    8.70%
     19    21      200.0000   343      184.0000      200.0000    46738    8.70%
     20    22      200.0000   340      184.0000      200.0000    46997    8.70%
     23    25      200.0000   324      184.0000      200.0000    49545    8.70%
     27    29      200.0000   413      184.0000      200.0000    51300    8.70%
     31    33      200.0000   348      184.0000      200.0000    52553    8.70%
     34    36      200.0000   340      184.0000      200.0000    53740    8.70%
Elapsed time = 30.83 sec. (35202.46 ticks, tree = 0.34 MB, solutions = 4)
     35    37      200.0000   370      184.0000      200.0000    58336    8.70%
     37    39      200.0000   370      184.0000      200.0000    62851    8.70%
     40    42      200.0000   403      184.0000      200.0000    69479    8.70%
     44    46      200.0000   395      184.0000      200.0000    74285    8.70%
     48    50      200.0000   448      184.0000      200.0000    79031    8.70%
     50    52      200.0000   438      184.0000      200.0000    82116    8.70%
     54    56      200.0000   540      184.0000      200.0000    88693    8.70%
     59    61      200.0000   512      184.0000      200.0000    93864    8.70%
     63    65      200.0000   418      184.0000      200.0000    99343    8.70%
     67    69      200.0000   452      184.0000      200.0000   105089    8.70%
Elapsed time = 42.55 sec. (47076.58 ticks, tree = 0.72 MB, solutions = 4)
     70    72      200.0000   467      184.0000      200.0000   114657    8.70%
     75    77      200.0000   443      184.0000      200.0000   121611    8.70%
     79    81      200.0000   437      184.0000      200.0000   126980    8.70%
     83    85      200.0000   359      184.0000      200.0000   137643    8.70%
     88    87      199.0000   418      184.0000      200.0000   152146    8.70%
     95    91      199.0000   367      184.0000      200.0000   155363    8.70%
    100    95      199.0000   344      184.0000      200.0000   159457    8.70%
    107    98      199.0000   293      184.0000      200.0000   168574    8.70%
    114   102      199.0000   285      184.0000      200.0000   174421    8.70%
    120   106      198.0000   335      184.0000      200.0000   176199    8.70%
Elapsed time = 55.10 sec. (58663.63 ticks, tree = 1.15 MB, solutions = 4)
    127   110      198.6111   291      184.0000      200.0000   183025    8.70%
    135   115      199.0000   238      184.0000      200.0000   189539    8.70%
    146   121      198.0000   288      184.0000      200.0000   195986    8.70%
    158   127      197.0000   189      184.0000      200.0000   203331    8.70%
    170   135      197.0000   154      184.0000      200.0000   209516    8.70%
    186   144      196.0000   156      184.0000      200.0000   214729    8.70%
    204   147      200.0000   380      184.0000      200.0000   230870    8.70%
    205   148      200.0000   484      184.0000      200.0000   238820    8.70%
    207   150      200.0000   540      184.0000      200.0000   244910    8.70%
    210   153      200.0000   548      184.0000      200.0000   249243    8.70%
Elapsed time = 68.93 sec. (72096.36 ticks, tree = 1.70 MB, solutions = 4)
    214   157      200.0000   543      184.0000      200.0000   253100    8.70%
    218   161      200.0000   554      184.0000      200.0000   258167    8.70%
    220   163      200.0000   542      184.0000      200.0000   258525    8.70%
    223   166      200.0000   509      184.0000      200.0000   263916    8.70%
    226   169      200.0000   507      184.0000      200.0000   269760    8.70%
    229   172      200.0000   530      184.0000      200.0000   283986    8.70%
    231   174      200.0000   454      184.0000      200.0000   288081    8.70%
    233   176      200.0000   386      184.0000      200.0000   295844    8.70%
    235   178      200.0000   322      184.0000      200.0000   309070    8.70%
    237   180      200.0000   224      184.0000      200.0000   318656    8.70%
Elapsed time = 86.13 sec. (90283.58 ticks, tree = 2.00 MB, solutions = 4)
    239   181      199.5577   464      184.0000      200.0000   327402    8.70%
    240   181      199.0000   371      184.0000      200.0000   334409    8.70%
    242   182      199.0000   493      184.0000      200.0000   347937    8.70%
    244   183      199.5728   621      184.0000      200.0000   357736    8.70%
    248   186      200.0000   382      184.0000      200.0000   368726    8.70%
    251   188      200.0000   377      184.0000      200.0000   377959    8.70%
    253   189      199.5025   437      184.0000      200.0000   395343    8.70%
    257   193      200.0000   164      184.0000      200.0000   398850    8.70%
    259   194      200.0000   382      184.0000      200.0000   408143    8.70%
    261   195      200.0000   344      184.0000      200.0000   415207    8.70%
Elapsed time = 101.45 sec. (105290.39 ticks, tree = 2.12 MB, solutions = 4)
    263   196      199.5789   454      184.0000      200.0000   430684    8.70%
    265   198      200.0000   176      184.0000      200.0000   434748    8.70%
    266   198      199.4839   451      184.0000      200.0000   450080    8.70%
    268   199      199.0000   458      184.0000      200.0000   457226    8.70%
    270   201      200.0000   130      184.0000      200.0000   461152    8.70%
    272   202      199.5172   485      184.0000      200.0000   471195    8.70%
    274   203      199.0000   444      184.0000      200.0000   485534    8.70%
    278   206      200.0000   348      184.0000      200.0000   499755    8.70%
    280   207      199.0000   371      184.0000      200.0000   507152    8.70%
    283   209      199.5328   493      184.0000      200.0000   517416    8.70%
Elapsed time = 116.87 sec. (120449.65 ticks, tree = 2.25 MB, solutions = 4)
    286   209      199.5727   500      184.0000      200.0000   533123    8.70%
    290   212      200.0000   277      184.0000      200.0000   542816    8.70%
    293   214      200.0000   279      184.0000      200.0000   553642    8.70%
    295   216      200.0000   275      184.0000      200.0000   564772    8.70%
    298   218      200.0000   265      184.0000      200.0000   573349    8.70%
    301   221      200.0000   270      184.0000      200.0000   581250    8.70%
    305   223      199.5574   493      184.0000      200.0000   592803    8.70%
    309   225      199.0000   502      184.0000      200.0000   608220    8.70%
    312   228      200.0000   272      184.0000      200.0000   614904    8.70%
    315   231      200.0000   274      184.0000      200.0000   624626    8.70%
Elapsed time = 128.60 sec. (131279.27 ticks, tree = 2.49 MB, solutions = 4)
    318   232      200.0000   275      184.0000      200.0000   638002    8.70%
    320   233      199.0000   443      184.0000      200.0000   643809    8.70%
    323   236      200.0000   359      184.0000      200.0000   651362    8.70%
    327   240      200.0000   323      184.0000      200.0000   658904    8.70%
    330   242      199.0000   339      184.0000      200.0000   668929    8.70%
    334   246      200.0000   262      184.0000      200.0000   676435    8.70%
    338   249      200.0000   246      184.0000      200.0000   685935    8.70%
    342   252      198.9184   379      184.0000      200.0000   696539    8.70%
    346   256      200.0000   252      184.0000      200.0000   703666    8.70%
    364   268      199.0000   360      184.0000      200.0000   744450    8.70%
Elapsed time = 144.40 sec. (145772.41 ticks, tree = 2.94 MB, solutions = 4)
    388   284      197.9869   327      184.0000      200.0000   785436    8.70%
    412   300      198.0000   307      184.0000      200.0000   824333    8.70%
*   451   319      integral     0      192.0000      200.0000   850731    4.17%
    452   319      200.0000   174      192.0000      200.0000   862139    4.17%
    469   335      199.0000   389      192.0000      200.0000   880227    4.17%
    489   354      198.0000   366      192.0000      200.0000   894802    4.17%
    513   363      200.0000   278      192.0000      200.0000   919480    4.17%
    531   379      198.0000   296      192.0000      200.0000   947250    4.17%
    562   392    infeasible            192.0000      200.0000   971325    4.17%
    583   407      198.0000   329      192.0000      200.0000   995805    4.17%
    607   430      198.0000   235      192.0000      200.0000  1009681    4.17%
Elapsed time = 187.53 sec. (185918.60 ticks, tree = 4.83 MB, solutions = 5)
    643   452      196.0000    97      192.0000      200.0000  1033571    4.17%
    663   460      200.0000   250      192.0000      200.0000  1079105    4.17%
    680   476      199.0000   173      192.0000      200.0000  1126631    4.17%
    720   500      198.0000   283      192.0000      200.0000  1153519    4.17%
    762   517    infeasible            192.0000      200.0000  1185605    4.17%
    807   538      196.0000    51      192.0000      200.0000  1217691    4.17%
    843   552      198.0000   242      192.0000      200.0000  1268079    4.17%
    894   576      200.0000   127      192.0000      200.0000  1288868    4.17%
    937   598    infeasible            192.0000      200.0000  1316207    4.17%
    977   616      200.0000   123      192.0000      200.0000  1353409    4.17%
Elapsed time = 232.32 sec. (224957.40 ticks, tree = 7.01 MB, solutions = 5)
   1012   640      197.0000    68      192.0000      200.0000  1387470    4.17%
   1048   655      196.0000   128      192.0000      200.0000  1429394    4.17%
   1094   662      200.0000   115      192.0000      200.0000  1470577    4.17%
   1118   678      198.0000   254      192.0000      200.0000  1519954    4.17%
   1164   694      198.0000    65      192.0000      200.0000  1551110    4.17%
   1205   706      198.0000   280      192.0000      200.0000  1598487    4.17%
   1244   725      198.0000   230      192.0000      200.0000  1623160    4.17%
   1291   752      200.0000   134      192.0000      200.0000  1647803    4.17%
   1310   770      199.0000   150      192.0000      200.0000  1694778    4.17%
   1347   806      198.0000   313      192.0000      200.0000  1703290    4.17%
Elapsed time = 276.97 sec. (263764.65 ticks, tree = 9.23 MB, solutions = 5)
   1384   842      198.0000   299      192.0000      200.0000  1704639    4.17%
   1417   869      198.0000   120      192.0000      200.0000  1724906    4.17%
   1455   903      197.0000   179      192.0000      200.0000  1732975    4.17%
   1496   941      196.0000   141      192.0000      200.0000  1742499    4.17%
   1544   980      196.0000    75      192.0000      200.0000  1752827    4.17%
*  1547+  811                          196.0000      200.0000             2.04%
   1547   812      198.9485   250      196.0000      200.0000  1763300    2.04%
   1549   812      198.9792   205      196.0000      200.0000  1770910    2.04%
   1593   832      198.9767   255      196.0000      200.0000  1801972    2.04%
   1632   853      198.0000   266      196.0000      200.0000  1823900    2.04%

Performing restart 1

Repeating presolve.
Tried aggregator 1 time.
MIP Presolve modified 173 coefficients.
Reduced MIP has 1213 rows, 5200 columns, and 77600 nonzeros.
Reduced MIP has 5200 binaries, 0 generals, 0 SOSs, and 0 indicators.
Presolve time = 0.08 sec. (98.93 ticks)
Tried aggregator 1 time.
MIP Presolve modified 10 coefficients.
Reduced MIP has 1213 rows, 5200 columns, and 77945 nonzeros.
Reduced MIP has 5200 binaries, 0 generals, 0 SOSs, and 0 indicators.
Presolve time = 0.08 sec. (101.66 ticks)
Represolve time = 0.42 sec. (368.09 ticks)
   1657     0      200.0000   428      196.0000       Cuts: 4  1846585    2.04%
   1657     0      200.0000   517      196.0000       Cuts: 3  1848415    2.04%
   1657     2      200.0000   101      196.0000      200.0000  1848415    2.04%
Elapsed time = 346.54 sec. (332820.74 ticks, tree = 0.01 MB, solutions = 6)
   1661     6      200.0000   268      196.0000      200.0000  1862046    2.04%
   1664     9      200.0000   571      196.0000      200.0000  1882054    2.04%
   1669    14      200.0000   450      196.0000      200.0000  1892727    2.04%
   1676    21      200.0000   235      196.0000      200.0000  1907833    2.04%
   1685    30      200.0000   214      196.0000      200.0000  1916851    2.04%
   1694    38      200.0000   340      196.0000      200.0000  1928140    2.04%
   1705    49      200.0000   425      196.0000      200.0000  1934678    2.04%
   1720    61      200.0000   280      196.0000      200.0000  1942113    2.04%
   1733    72      200.0000   303      196.0000      200.0000  1950264    2.04%
   1751    88      199.5198   327      196.0000      200.0000  1957794    2.04%
Elapsed time = 384.33 sec. (374468.64 ticks, tree = 0.96 MB, solutions = 6)
   1757    93      200.0000   201      196.0000      200.0000  1960858    2.04%
   1784   111      198.0000   227      196.0000      200.0000  1970995    2.04%
   1825   132      197.0000   168      196.0000      200.0000  1980130    2.04%
   1897   133      200.0000   158      196.0000      200.0000  1988677    2.04%
   1925   146      199.0000   204      196.0000      200.0000  1998988    2.04%
   1972   165      198.0000   249      196.0000      200.0000  2007557    2.04%
   2021   172      197.0000   178      196.0000      200.0000  2016824    2.04%
   2073   173    infeasible            196.0000      200.0000  2027967    2.04%
   2107   187      197.0000   226      196.0000      200.0000  2035556    2.04%
   2146   203    infeasible            196.0000      200.0000  2044233    2.04%
Elapsed time = 431.02 sec. (420118.23 ticks, tree = 2.30 MB, solutions = 6)
   2186   218      197.0000    96      196.0000      200.0000  2053477    2.04%
   2230   229      197.0000   200      196.0000      200.0000  2061245    2.04%
   2267   238      200.0000   156      196.0000      200.0000  2073086    2.04%
   2299   254      199.0000   122      196.0000      200.0000  2082894    2.04%
   2352   274      199.0000   150      196.0000      200.0000  2093020    2.04%
   2391   287      199.0000   197      196.0000      200.0000  2101691    2.04%
   2440   297      198.0000   178      196.0000      200.0000  2111529    2.04%
   2475   308      199.0000   222      196.0000      200.0000  2120650    2.04%
   2515   328      199.0000   233      196.0000      200.0000  2128692    2.04%
   2548   346      199.0000   234      196.0000      200.0000  2137773    2.04%
Elapsed time = 470.22 sec. (459032.40 ticks, tree = 3.90 MB, solutions = 6)
   2579   361      197.0000   167      196.0000      200.0000  2148084    2.04%
   2621   380      197.0000   117      196.0000      200.0000  2156595    2.04%
   2654   401      198.0000   257      196.0000      200.0000  2162298    2.04%
   2693   431      197.0000   284      196.0000      200.0000  2165522    2.04%
   2730   456      197.0000   238      196.0000      200.0000  2171391    2.04%
   2767   470      199.0000   171      196.0000      200.0000  2182146    2.04%
   2806   489      199.0000   179      196.0000      200.0000  2191457    2.04%
   2854   516      197.0000   120      196.0000      200.0000  2199877    2.04%
   2894   532      197.0000   106      196.0000      200.0000  2210133    2.04%
   2906   536      200.0000   351      196.0000      200.0000  2230748    2.04%
Elapsed time = 511.06 sec. (499914.67 ticks, tree = 6.06 MB, solutions = 6)
   2916   546      200.0000   250      196.0000      200.0000  2239514    2.04%
   2931   560      199.0000   327      196.0000      200.0000  2248107    2.04%
   2955   580      198.0000   177      196.0000      200.0000  2255710    2.04%
   2994   599      198.0000   215      196.0000      200.0000  2266553    2.04%
   3031   617    infeasible            196.0000      200.0000  2277731    2.04%
   3071   630      198.0000   170      196.0000      200.0000  2287404    2.04%
   3107   639      200.0000   219      196.0000      200.0000  2299854    2.04%
   3120   652      200.0000   307      196.0000      200.0000  2307167    2.04%
   3135   666      199.0000   197      196.0000      200.0000  2314079    2.04%
Starting limited solution polishing.
   3165   688      200.0000   321      196.0000      200.0000  2322182    2.04%
Elapsed time = 551.05 sec. (541311.22 ticks, tree = 7.80 MB, solutions = 6)
   3181   702      199.0000   354      196.0000      200.0000  2327018    2.04%
   3210   723      197.0000   174      196.0000      200.0000  2333478    2.04%
   3256   728      200.0000   311      196.0000      200.0000  2344533    2.04%
   3267   739      200.0000   281      196.0000      200.0000  2353732    2.04%
   3282   753      199.0000   212      196.0000      200.0000  2362189    2.04%
   3331   767      200.0000   259      196.0000      200.0000  2372452    2.04%
   3347   776      199.0000   212      196.0000      200.0000  2386337    2.04%
   3377   787      199.0000   241      196.0000      200.0000  2394611    2.04%
   3421   795      199.0000   172      196.0000      200.0000  2407037    2.04%
   3469   801      200.0000   235      196.0000      200.0000  2417458    2.04%
Elapsed time = 589.86 sec. (580922.19 ticks, tree = 9.09 MB, solutions = 6)
   3497   821      197.0000   187      196.0000      200.0000  2424931    2.04%
   3538   829      198.0000   348      196.0000      200.0000  2436158    2.04%

Clique cuts applied:  6
Zero-half cuts applied:  2
Gomory fractional cuts applied:  2

Root node processing (before b&c):
  Real time             =    7.63 sec. (8567.63 ticks)
Sequential b&c:
  Real time             =  592.37 sec. (582649.97 ticks)
                          ------------
Total (root+branch&cut) =  600.00 sec. (591217.60 ticks)
Primal:	196
Dual:	200
Status:	Feasible
Time:	600.03
Sequence:
	10
	14
	9
	10
	16
	7
	10
	15
	7
	21
	1
	18
	9
	14
	10
	7
	16
	13
	7
	14
	10
	16
	9
	10
	14
	7
	10
	14
	8
	23
	1
	18
	10
	14
	9
	21
	1
	18
	10
	15
	7
	21
	1
	18
	11
	14
	7
	21
	1
	20
	10
	14
	7
	18
	4
	18
	7
	3
	18
	9
	5
	7
	18
	3
	20
	7
	3
	18
	7
	6
	7
	18
	5
	7
	20
	3
	18
	7
	5
	19
	7
	16
	7
	18
	5
	8
	18
	3
	18
	7
	17
	7
	18
	3
	7
	20
	3
	7
	18
	5
	7
	18
	3
	18
	7
	15
	12
	7
	14
	12
	19
	1
	21
	7
	14
	12
	16
	8
	14
	7
	16
	10
	7
	15
	12
	18
	1
	21
	8
	16
	7
	21
	1
	19
	12
	14
	7
	21
	2
	18
	10
	14
	7
	21
	2
	18
	10
	14
	7
	23
	1
	19
	10
	14
	7
	21
	0
	18
	12
	14
	7
	12
	14
	7
	21
	0
	18
	12
	14
	7
	19
	5
	18
	7
	14
	13
	7
	16
	10
	18
	2
	21
	7
	14
	12
	8
	14
	12
	7
	14
	10
	18
	2
	21
	7
	16
